c description: Subset cardinality formula for fast_gnp_random_graph(4,10,0.9)
c generator: CNFgen (0.9.0)
c copyright: (C) 2012-2020 Massimo Lauria <massimo.lauria@uniroma1.it>
c url: https://massimolauria.net/cnfgen
c
p cnf 38 710
1 2 3 4 5 0
1 2 3 4 6 0
1 2 3 4 7 0
1 2 3 4 8 0
1 2 3 4 9 0
1 2 3 5 6 0
1 2 3 5 7 0
1 2 3 5 8 0
1 2 3 5 9 0
1 2 3 6 7 0
1 2 3 6 8 0
1 2 3 6 9 0
1 2 3 7 8 0
1 2 3 7 9 0
1 2 3 8 9 0
1 2 4 5 6 0
1 2 4 5 7 0
1 2 4 5 8 0
1 2 4 5 9 0
1 2 4 6 7 0
1 2 4 6 8 0
1 2 4 6 9 0
1 2 4 7 8 0
1 2 4 7 9 0
1 2 4 8 9 0
1 2 5 6 7 0
1 2 5 6 8 0
1 2 5 6 9 0
1 2 5 7 8 0
1 2 5 7 9 0
1 2 5 8 9 0
1 2 6 7 8 0
1 2 6 7 9 0
1 2 6 8 9 0
1 2 7 8 9 0
1 3 4 5 6 0
1 3 4 5 7 0
1 3 4 5 8 0
1 3 4 5 9 0
1 3 4 6 7 0
1 3 4 6 8 0
1 3 4 6 9 0
1 3 4 7 8 0
1 3 4 7 9 0
1 3 4 8 9 0
1 3 5 6 7 0
1 3 5 6 8 0
1 3 5 6 9 0
1 3 5 7 8 0
1 3 5 7 9 0
1 3 5 8 9 0
1 3 6 7 8 0
1 3 6 7 9 0
1 3 6 8 9 0
1 3 7 8 9 0
1 4 5 6 7 0
1 4 5 6 8 0
1 4 5 6 9 0
1 4 5 7 8 0
1 4 5 7 9 0
1 4 5 8 9 0
1 4 6 7 8 0
1 4 6 7 9 0
1 4 6 8 9 0
1 4 7 8 9 0
1 5 6 7 8 0
1 5 6 7 9 0
1 5 6 8 9 0
1 5 7 8 9 0
1 6 7 8 9 0
2 3 4 5 6 0
2 3 4 5 7 0
2 3 4 5 8 0
2 3 4 5 9 0
2 3 4 6 7 0
2 3 4 6 8 0
2 3 4 6 9 0
2 3 4 7 8 0
2 3 4 7 9 0
2 3 4 8 9 0
2 3 5 6 7 0
2 3 5 6 8 0
2 3 5 6 9 0
2 3 5 7 8 0
2 3 5 7 9 0
2 3 5 8 9 0
2 3 6 7 8 0
2 3 6 7 9 0
2 3 6 8 9 0
2 3 7 8 9 0
2 4 5 6 7 0
2 4 5 6 8 0
2 4 5 6 9 0
2 4 5 7 8 0
2 4 5 7 9 0
2 4 5 8 9 0
2 4 6 7 8 0
2 4 6 7 9 0
2 4 6 8 9 0
2 4 7 8 9 0
2 5 6 7 8 0
2 5 6 7 9 0
2 5 6 8 9 0
2 5 7 8 9 0
2 6 7 8 9 0
3 4 5 6 7 0
3 4 5 6 8 0
3 4 5 6 9 0
3 4 5 7 8 0
3 4 5 7 9 0
3 4 5 8 9 0
3 4 6 7 8 0
3 4 6 7 9 0
3 4 6 8 9 0
3 4 7 8 9 0
3 5 6 7 8 0
3 5 6 7 9 0
3 5 6 8 9 0
3 5 7 8 9 0
3 6 7 8 9 0
4 5 6 7 8 0
4 5 6 7 9 0
4 5 6 8 9 0
4 5 7 8 9 0
4 6 7 8 9 0
5 6 7 8 9 0
10 11 12 13 14 15 0
10 11 12 13 14 16 0
10 11 12 13 14 17 0
10 11 12 13 14 18 0
10 11 12 13 14 19 0
10 11 12 13 15 16 0
10 11 12 13 15 17 0
10 11 12 13 15 18 0
10 11 12 13 15 19 0
10 11 12 13 16 17 0
10 11 12 13 16 18 0
10 11 12 13 16 19 0
10 11 12 13 17 18 0
10 11 12 13 17 19 0
10 11 12 13 18 19 0
10 11 12 14 15 16 0
10 11 12 14 15 17 0
10 11 12 14 15 18 0
10 11 12 14 15 19 0
10 11 12 14 16 17 0
10 11 12 14 16 18 0
10 11 12 14 16 19 0
10 11 12 14 17 18 0
10 11 12 14 17 19 0
10 11 12 14 18 19 0
10 11 12 15 16 17 0
10 11 12 15 16 18 0
10 11 12 15 16 19 0
10 11 12 15 17 18 0
10 11 12 15 17 19 0
10 11 12 15 18 19 0
10 11 12 16 17 18 0
10 11 12 16 17 19 0
10 11 12 16 18 19 0
10 11 12 17 18 19 0
10 11 13 14 15 16 0
10 11 13 14 15 17 0
10 11 13 14 15 18 0
10 11 13 14 15 19 0
10 11 13 14 16 17 0
10 11 13 14 16 18 0
10 11 13 14 16 19 0
10 11 13 14 17 18 0
10 11 13 14 17 19 0
10 11 13 14 18 19 0
10 11 13 15 16 17 0
10 11 13 15 16 18 0
10 11 13 15 16 19 0
10 11 13 15 17 18 0
10 11 13 15 17 19 0
10 11 13 15 18 19 0
10 11 13 16 17 18 0
10 11 13 16 17 19 0
10 11 13 16 18 19 0
10 11 13 17 18 19 0
10 11 14 15 16 17 0
10 11 14 15 16 18 0
10 11 14 15 16 19 0
10 11 14 15 17 18 0
10 11 14 15 17 19 0
10 11 14 15 18 19 0
10 11 14 16 17 18 0
10 11 14 16 17 19 0
10 11 14 16 18 19 0
10 11 14 17 18 19 0
10 11 15 16 17 18 0
10 11 15 16 17 19 0
10 11 15 16 18 19 0
10 11 15 17 18 19 0
10 11 16 17 18 19 0
10 12 13 14 15 16 0
10 12 13 14 15 17 0
10 12 13 14 15 18 0
10 12 13 14 15 19 0
10 12 13 14 16 17 0
10 12 13 14 16 18 0
10 12 13 14 16 19 0
10 12 13 14 17 18 0
10 12 13 14 17 19 0
10 12 13 14 18 19 0
10 12 13 15 16 17 0
10 12 13 15 16 18 0
10 12 13 15 16 19 0
10 12 13 15 17 18 0
10 12 13 15 17 19 0
10 12 13 15 18 19 0
10 12 13 16 17 18 0
10 12 13 16 17 19 0
10 12 13 16 18 19 0
10 12 13 17 18 19 0
10 12 14 15 16 17 0
10 12 14 15 16 18 0
10 12 14 15 16 19 0
10 12 14 15 17 18 0
10 12 14 15 17 19 0
10 12 14 15 18 19 0
10 12 14 16 17 18 0
10 12 14 16 17 19 0
10 12 14 16 18 19 0
10 12 14 17 18 19 0
10 12 15 16 17 18 0
10 12 15 16 17 19 0
10 12 15 16 18 19 0
10 12 15 17 18 19 0
10 12 16 17 18 19 0
10 13 14 15 16 17 0
10 13 14 15 16 18 0
10 13 14 15 16 19 0
10 13 14 15 17 18 0
10 13 14 15 17 19 0
10 13 14 15 18 19 0
10 13 14 16 17 18 0
10 13 14 16 17 19 0
10 13 14 16 18 19 0
10 13 14 17 18 19 0
10 13 15 16 17 18 0
10 13 15 16 17 19 0
10 13 15 16 18 19 0
10 13 15 17 18 19 0
10 13 16 17 18 19 0
10 14 15 16 17 18 0
10 14 15 16 17 19 0
10 14 15 16 18 19 0
10 14 15 17 18 19 0
10 14 16 17 18 19 0
10 15 16 17 18 19 0
11 12 13 14 15 16 0
11 12 13 14 15 17 0
11 12 13 14 15 18 0
11 12 13 14 15 19 0
11 12 13 14 16 17 0
11 12 13 14 16 18 0
11 12 13 14 16 19 0
11 12 13 14 17 18 0
11 12 13 14 17 19 0
11 12 13 14 18 19 0
11 12 13 15 16 17 0
11 12 13 15 16 18 0
11 12 13 15 16 19 0
11 12 13 15 17 18 0
11 12 13 15 17 19 0
11 12 13 15 18 19 0
11 12 13 16 17 18 0
11 12 13 16 17 19 0
11 12 13 16 18 19 0
11 12 13 17 18 19 0
11 12 14 15 16 17 0
11 12 14 15 16 18 0
11 12 14 15 16 19 0
11 12 14 15 17 18 0
11 12 14 15 17 19 0
11 12 14 15 18 19 0
11 12 14 16 17 18 0
11 12 14 16 17 19 0
11 12 14 16 18 19 0
11 12 14 17 18 19 0
11 12 15 16 17 18 0
11 12 15 16 17 19 0
11 12 15 16 18 19 0
11 12 15 17 18 19 0
11 12 16 17 18 19 0
11 13 14 15 16 17 0
11 13 14 15 16 18 0
11 13 14 15 16 19 0
11 13 14 15 17 18 0
11 13 14 15 17 19 0
11 13 14 15 18 19 0
11 13 14 16 17 18 0
11 13 14 16 17 19 0
11 13 14 16 18 19 0
11 13 14 17 18 19 0
11 13 15 16 17 18 0
11 13 15 16 17 19 0
11 13 15 16 18 19 0
11 13 15 17 18 19 0
11 13 16 17 18 19 0
11 14 15 16 17 18 0
11 14 15 16 17 19 0
11 14 15 16 18 19 0
11 14 15 17 18 19 0
11 14 16 17 18 19 0
11 15 16 17 18 19 0
12 13 14 15 16 17 0
12 13 14 15 16 18 0
12 13 14 15 16 19 0
12 13 14 15 17 18 0
12 13 14 15 17 19 0
12 13 14 15 18 19 0
12 13 14 16 17 18 0
12 13 14 16 17 19 0
12 13 14 16 18 19 0
12 13 14 17 18 19 0
12 13 15 16 17 18 0
12 13 15 16 17 19 0
12 13 15 16 18 19 0
12 13 15 17 18 19 0
12 13 16 17 18 19 0
12 14 15 16 17 18 0
12 14 15 16 17 19 0
12 14 15 16 18 19 0
12 14 15 17 18 19 0
12 14 16 17 18 19 0
12 15 16 17 18 19 0
13 14 15 16 17 18 0
13 14 15 16 17 19 0
13 14 15 16 18 19 0
13 14 15 17 18 19 0
13 14 16 17 18 19 0
13 15 16 17 18 19 0
14 15 16 17 18 19 0
20 21 22 23 24 25 0
20 21 22 23 24 26 0
20 21 22 23 24 27 0
20 21 22 23 24 28 0
20 21 22 23 24 29 0
20 21 22 23 25 26 0
20 21 22 23 25 27 0
20 21 22 23 25 28 0
20 21 22 23 25 29 0
20 21 22 23 26 27 0
20 21 22 23 26 28 0
20 21 22 23 26 29 0
20 21 22 23 27 28 0
20 21 22 23 27 29 0
20 21 22 23 28 29 0
20 21 22 24 25 26 0
20 21 22 24 25 27 0
20 21 22 24 25 28 0
20 21 22 24 25 29 0
20 21 22 24 26 27 0
20 21 22 24 26 28 0
20 21 22 24 26 29 0
20 21 22 24 27 28 0
20 21 22 24 27 29 0
20 21 22 24 28 29 0
20 21 22 25 26 27 0
20 21 22 25 26 28 0
20 21 22 25 26 29 0
20 21 22 25 27 28 0
20 21 22 25 27 29 0
20 21 22 25 28 29 0
20 21 22 26 27 28 0
20 21 22 26 27 29 0
20 21 22 26 28 29 0
20 21 22 27 28 29 0
20 21 23 24 25 26 0
20 21 23 24 25 27 0
20 21 23 24 25 28 0
20 21 23 24 25 29 0
20 21 23 24 26 27 0
20 21 23 24 26 28 0
20 21 23 24 26 29 0
20 21 23 24 27 28 0
20 21 23 24 27 29 0
20 21 23 24 28 29 0
20 21 23 25 26 27 0
20 21 23 25 26 28 0
20 21 23 25 26 29 0
20 21 23 25 27 28 0
20 21 23 25 27 29 0
20 21 23 25 28 29 0
20 21 23 26 27 28 0
20 21 23 26 27 29 0
20 21 23 26 28 29 0
20 21 23 27 28 29 0
20 21 24 25 26 27 0
20 21 24 25 26 28 0
20 21 24 25 26 29 0
20 21 24 25 27 28 0
20 21 24 25 27 29 0
20 21 24 25 28 29 0
20 21 24 26 27 28 0
20 21 24 26 27 29 0
20 21 24 26 28 29 0
20 21 24 27 28 29 0
20 21 25 26 27 28 0
20 21 25 26 27 29 0
20 21 25 26 28 29 0
20 21 25 27 28 29 0
20 21 26 27 28 29 0
20 22 23 24 25 26 0
20 22 23 24 25 27 0
20 22 23 24 25 28 0
20 22 23 24 25 29 0
20 22 23 24 26 27 0
20 22 23 24 26 28 0
20 22 23 24 26 29 0
20 22 23 24 27 28 0
20 22 23 24 27 29 0
20 22 23 24 28 29 0
20 22 23 25 26 27 0
20 22 23 25 26 28 0
20 22 23 25 26 29 0
20 22 23 25 27 28 0
20 22 23 25 27 29 0
20 22 23 25 28 29 0
20 22 23 26 27 28 0
20 22 23 26 27 29 0
20 22 23 26 28 29 0
20 22 23 27 28 29 0
20 22 24 25 26 27 0
20 22 24 25 26 28 0
20 22 24 25 26 29 0
20 22 24 25 27 28 0
20 22 24 25 27 29 0
20 22 24 25 28 29 0
20 22 24 26 27 28 0
20 22 24 26 27 29 0
20 22 24 26 28 29 0
20 22 24 27 28 29 0
20 22 25 26 27 28 0
20 22 25 26 27 29 0
20 22 25 26 28 29 0
20 22 25 27 28 29 0
20 22 26 27 28 29 0
20 23 24 25 26 27 0
20 23 24 25 26 28 0
20 23 24 25 26 29 0
20 23 24 25 27 28 0
20 23 24 25 27 29 0
20 23 24 25 28 29 0
20 23 24 26 27 28 0
20 23 24 26 27 29 0
20 23 24 26 28 29 0
20 23 24 27 28 29 0
20 23 25 26 27 28 0
20 23 25 26 27 29 0
20 23 25 26 28 29 0
20 23 25 27 28 29 0
20 23 26 27 28 29 0
20 24 25 26 27 28 0
20 24 25 26 27 29 0
20 24 25 26 28 29 0
20 24 25 27 28 29 0
20 24 26 27 28 29 0
20 25 26 27 28 29 0
21 22 23 24 25 26 0
21 22 23 24 25 27 0
21 22 23 24 25 28 0
21 22 23 24 25 29 0
21 22 23 24 26 27 0
21 22 23 24 26 28 0
21 22 23 24 26 29 0
21 22 23 24 27 28 0
21 22 23 24 27 29 0
21 22 23 24 28 29 0
21 22 23 25 26 27 0
21 22 23 25 26 28 0
21 22 23 25 26 29 0
21 22 23 25 27 28 0
21 22 23 25 27 29 0
21 22 23 25 28 29 0
21 22 23 26 27 28 0
21 22 23 26 27 29 0
21 22 23 26 28 29 0
21 22 23 27 28 29 0
21 22 24 25 26 27 0
21 22 24 25 26 28 0
21 22 24 25 26 29 0
21 22 24 25 27 28 0
21 22 24 25 27 29 0
21 22 24 25 28 29 0
21 22 24 26 27 28 0
21 22 24 26 27 29 0
21 22 24 26 28 29 0
21 22 24 27 28 29 0
21 22 25 26 27 28 0
21 22 25 26 27 29 0
21 22 25 26 28 29 0
21 22 25 27 28 29 0
21 22 26 27 28 29 0
21 23 24 25 26 27 0
21 23 24 25 26 28 0
21 23 24 25 26 29 0
21 23 24 25 27 28 0
21 23 24 25 27 29 0
21 23 24 25 28 29 0
21 23 24 26 27 28 0
21 23 24 26 27 29 0
21 23 24 26 28 29 0
21 23 24 27 28 29 0
21 23 25 26 27 28 0
21 23 25 26 27 29 0
21 23 25 26 28 29 0
21 23 25 27 28 29 0
21 23 26 27 28 29 0
21 24 25 26 27 28 0
21 24 25 26 27 29 0
21 24 25 26 28 29 0
21 24 25 27 28 29 0
21 24 26 27 28 29 0
21 25 26 27 28 29 0
22 23 24 25 26 27 0
22 23 24 25 26 28 0
22 23 24 25 26 29 0
22 23 24 25 27 28 0
22 23 24 25 27 29 0
22 23 24 25 28 29 0
22 23 24 26 27 28 0
22 23 24 26 27 29 0
22 23 24 26 28 29 0
22 23 24 27 28 29 0
22 23 25 26 27 28 0
22 23 25 26 27 29 0
22 23 25 26 28 29 0
22 23 25 27 28 29 0
22 23 26 27 28 29 0
22 24 25 26 27 28 0
22 24 25 26 27 29 0
22 24 25 26 28 29 0
22 24 25 27 28 29 0
22 24 26 27 28 29 0
22 25 26 27 28 29 0
23 24 25 26 27 28 0
23 24 25 26 27 29 0
23 24 25 26 28 29 0
23 24 25 27 28 29 0
23 24 26 27 28 29 0
23 25 26 27 28 29 0
24 25 26 27 28 29 0
30 31 32 33 34 0
30 31 32 33 35 0
30 31 32 33 36 0
30 31 32 33 37 0
30 31 32 33 38 0
30 31 32 34 35 0
30 31 32 34 36 0
30 31 32 34 37 0
30 31 32 34 38 0
30 31 32 35 36 0
30 31 32 35 37 0
30 31 32 35 38 0
30 31 32 36 37 0
30 31 32 36 38 0
30 31 32 37 38 0
30 31 33 34 35 0
30 31 33 34 36 0
30 31 33 34 37 0
30 31 33 34 38 0
30 31 33 35 36 0
30 31 33 35 37 0
30 31 33 35 38 0
30 31 33 36 37 0
30 31 33 36 38 0
30 31 33 37 38 0
30 31 34 35 36 0
30 31 34 35 37 0
30 31 34 35 38 0
30 31 34 36 37 0
30 31 34 36 38 0
30 31 34 37 38 0
30 31 35 36 37 0
30 31 35 36 38 0
30 31 35 37 38 0
30 31 36 37 38 0
30 32 33 34 35 0
30 32 33 34 36 0
30 32 33 34 37 0
30 32 33 34 38 0
30 32 33 35 36 0
30 32 33 35 37 0
30 32 33 35 38 0
30 32 33 36 37 0
30 32 33 36 38 0
30 32 33 37 38 0
30 32 34 35 36 0
30 32 34 35 37 0
30 32 34 35 38 0
30 32 34 36 37 0
30 32 34 36 38 0
30 32 34 37 38 0
30 32 35 36 37 0
30 32 35 36 38 0
30 32 35 37 38 0
30 32 36 37 38 0
30 33 34 35 36 0
30 33 34 35 37 0
30 33 34 35 38 0
30 33 34 36 37 0
30 33 34 36 38 0
30 33 34 37 38 0
30 33 35 36 37 0
30 33 35 36 38 0
30 33 35 37 38 0
30 33 36 37 38 0
30 34 35 36 37 0
30 34 35 36 38 0
30 34 35 37 38 0
30 34 36 37 38 0
30 35 36 37 38 0
31 32 33 34 35 0
31 32 33 34 36 0
31 32 33 34 37 0
31 32 33 34 38 0
31 32 33 35 36 0
31 32 33 35 37 0
31 32 33 35 38 0
31 32 33 36 37 0
31 32 33 36 38 0
31 32 33 37 38 0
31 32 34 35 36 0
31 32 34 35 37 0
31 32 34 35 38 0
31 32 34 36 37 0
31 32 34 36 38 0
31 32 34 37 38 0
31 32 35 36 37 0
31 32 35 36 38 0
31 32 35 37 38 0
31 32 36 37 38 0
31 33 34 35 36 0
31 33 34 35 37 0
31 33 34 35 38 0
31 33 34 36 37 0
31 33 34 36 38 0
31 33 34 37 38 0
31 33 35 36 37 0
31 33 35 36 38 0
31 33 35 37 38 0
31 33 36 37 38 0
31 34 35 36 37 0
31 34 35 36 38 0
31 34 35 37 38 0
31 34 36 37 38 0
31 35 36 37 38 0
32 33 34 35 36 0
32 33 34 35 37 0
32 33 34 35 38 0
32 33 34 36 37 0
32 33 34 36 38 0
32 33 34 37 38 0
32 33 35 36 37 0
32 33 35 36 38 0
32 33 35 37 38 0
32 33 36 37 38 0
32 34 35 36 37 0
32 34 35 36 38 0
32 34 35 37 38 0
32 34 36 37 38 0
32 35 36 37 38 0
33 34 35 36 37 0
33 34 35 36 38 0
33 34 35 37 38 0
33 34 36 37 38 0
33 35 36 37 38 0
34 35 36 37 38 0
-1 -10 -20 0
-1 -10 -30 0
-1 -20 -30 0
-10 -20 -30 0
-2 -11 -21 0
-2 -11 -31 0
-2 -21 -31 0
-11 -21 -31 0
-3 -12 -22 0
-3 -12 -32 0
-3 -22 -32 0
-12 -22 -32 0
-13 -23 0
-13 -33 0
-23 -33 0
-4 -14 -24 0
-4 -14 -34 0
-4 -24 -34 0
-14 -24 -34 0
-5 -15 -25 0
-5 -15 -35 0
-5 -25 -35 0
-15 -25 -35 0
-6 -16 -26 0
-6 -16 -36 0
-6 -26 -36 0
-16 -26 -36 0
-7 -17 -27 0
-7 -17 -37 0
-7 -27 -37 0
-17 -27 -37 0
-8 -18 -28 0
-8 -18 -38 0
-8 -28 -38 0
-18 -28 -38 0
-9 -19 0
-9 -29 0
-19 -29 0